
  32    4
  10   10   10   10

   0   0   0   0   0   3 2 5 6 
   2   1   1   0   1   3 14 11 3 
   1   0   6   1   4   2 13 4 
   5   0   2   2   4   3 31 30 7 
   6   6   3   0   4   2 30 7 
   6   7   3   4   0   2 30 7 
   3   6   6   0   3   3 17 15 8 
   9   6   4   0   2   3 22 18 9 
   8   4   4   2   0   1 10 
   9   2   2   0   2   3 28 25 12 
   3   5   5   0   5   5 29 28 27 25 16 
   1   5   3   0   7   3 29 27 16 
   7   2   7   5   0   4 28 26 25 19 
   7   3   4   5   0   2 31 18 
   2   3   0   4   3   4 27 25 24 20 
  10   3   0   4   7   2 26 19 
  10   5   5   4   0   3 24 23 21 
   3   3   2   6   0   1 19 
  10   0   3   5   6   2 24 20 
   1   4   0   5   4   1 23 
   7   4   3   0   5   1 25 
  10   2   0   4   1   1 25 
   7   0   8   5   5   1 32
   9   4   4   0   4   1 32
   4   3   0   4   9   1 32
   7   5   6   3   0   1 32
   2   4   0   3   2   1 32
   5   0   2   5   2   1 32
   9   0   5   6   3   1 32
   2   5   5   0   3   1 32
   6   0   3   3   6   1 32
   0   0   0   0   0   0 
